Route #1: 1 13 14 29 35 53 59 60 66 73 78 89 97 98 90 84 74 85 91 92 79 80 81 68 69 56 48 37 26 25 32 17 24 23 31 42 36 47 46 54 55 62 67 61 45 41 30 16 15 2 3 9 10 4 5 11 18 12 6 19 27 33 38 39 28 20 21 7 8 22 34 44 52 40 43 51 64 65 83 88 77 72 63 58 50 49 57 70 71 75 76 87 96 95 86 100 94 82 93 99
Cost 45804
